letting n_nurses=25
letting n_days=7
letting n_shift_types=4
letting max_covers=10
letting t_covers=87
letting covers=[9,2,2,0,8,6,0,0,10,0,6,0,6,0,7,0,3,0,4,0,7,8,0,0,1,2,6,0]
letting prefes=[3,4,1,2,3,1,4,1,1,1,4,1,3,4,1,1,1,1,1,1,3,4,1,1,1,1,1,1,1,4,1,2,1,4,4,2,3,1,4,2,3,4,1,2,3,2,4,2,3,4,1,2,3,2,4,2,3,4,1,2,3,4,4,2,3,1,1,2,1,1,1,2,3,1,1,2,1,1,1,2,3,1,1,2,1,4,1,2,3,1,4,2,3,1,4,2,3,4,4,2,1,1,4,2,3,4,4,2,1,1,4,2,3,4,4,4,3,1,1,1,1,1,4,1,3,4,1,1,3,1,4,1,3,4,1,1,3,1,4,1,3,4,4,2,3,1,1,2,3,1,4,2,3,4,1,2,3,1,1,2,3,4,1,2,3,1,1,2,3,1,4,4,1,1,4,2,1,1,4,2,3,4,4,2,3,1,4,2,3,4,4,2,3,1,4,2,3,4,1,2,3,1,1,2,3,1,4,2,3,4,1,2,3,2,4,2,3,4,1,2,3,2,4,2,3,4,4,2,1,1,4,2,3,1,1,2,3,4,1,2,3,2,4,2,3,4,1,2,3,2,4,2,3,1,1,2,3,4,4,2,3,1,4,2,3,1,1,2,1,2,4,2,3,1,1,2,1,2,4,2,3,4,1,2,3,1,4,1,3,1,4,1,3,1,1,2,3,1,1,2,3,1,1,2,3,1,1,2,3,1,1,2,3,1,4,2,3,2,4,2,3,4,1,2,3,1,4,2,3,4,1,2,3,1,4,2,3,4,1,2,1,1,1,2,3,1,4,2,3,4,4,2,3,1,4,2,3,4,4,2,3,1,4,2,3,1,1,2,3,1,4,1,3,1,4,1,3,4,4,2,3,1,4,2,3,4,4,2,3,1,4,2,3,4,1,2,1,1,4,2,3,2,4,2,1,4,1,2,3,1,4,2,1,4,1,2,3,1,4,2,3,4,1,2,3,4,4,2,3,2,4,2,1,4,1,1,3,1,4,1,1,4,1,1,3,1,4,1,3,4,1,2,3,1,4,2,3,1,4,2,1,4,4,2,3,1,4,2,1,4,4,2,3,1,4,2,1,4,1,4,3,1,4,1,3,1,1,1,3,4,1,2,3,2,4,2,3,4,1,2,3,2,4,2,1,4,1,2,3,1,4,2,3,1,4,2,3,4,1,1,3,1,4,1,3,4,1,1,3,1,4,1,1,4,1,4,3,1,4,2,3,2,1,2,3,4,1,2,3,1,4,2,3,4,1,2,3,1,4,2,3,4,1,2,3,1,4,2,3,2,4,2,3,1,1,2,3,1,4,2,3,1,1,2,3,1,4,2,3,1,1,2,3,1,4,2,1,1,4,2,3,4,1,1,3,1,4,1,3,4,1,1,3,1,4,1,3,4,4,4,3,1,1,2,3,1,4,2,3,1,1,2,1,1,4,2,3,1,1,2,1,1,4,2,3,4,1,2,3,4,4,2,3,1,4,2,1,4,1,2,3,1,4,2,1,4,1,2,3,1,4,2,3,4,1,2,3,1,4,2,1,1,1,2,3,4,1,2,1,1,1,2,3,4,1,2,1,1,1,2]
letting ub =  310
